HUN,8,6,246
0,58,3,56,4,42,2,66,5,53,1,12
3,91,5,70,0,80,2,1,1,28,4,41
5,74,1,26,0,18,4,99,2,47,3,64
2,55,1,88,4,17,3,60,0,55,5,89
3,82,5,24,2,20,0,48,1,96,4,30
3,56,1,56,0,67,5,52,2,70,4,57
0,40,1,59,2,100,3,12,4,17,5,48
1,88,2,11,5,36,4,90,0,47,3,30
